;; ===================== PROJECTED CANON (QE) =====================
;; Each clause below is entailed by Proj = ∃W.F over the canonical vocabulary.
;; Units appear first for clarity; OR-clauses (SAT-filtered) follow.
;; ==================================================================

;; Unit Bool constraints (entailed)
(assert (not patient_has_finding_of_allergy_to_penicillin_inthehistory))
(assert (not patient_has_finding_of_allergy_to_metronidazole_inthehistory))
(assert (not patient_is_pregnant_now))
(assert (not patient_is_breastfeeding_now))
(assert (not patient_has_finding_of_renal_insufficiency_now))
(assert (not patient_has_finding_of_hepatic_failure_now))
(assert (not patient_has_finding_of_alcoholism_now))
(assert (not patient_is_undergoing_enrollment_in_clinical_trial_now))
(assert (not patient_will_undergo_tonsillectomy_inthefuture30days))
